c Standarized MaxSat Instance
c{
c "sha1sum": "c92099ce5a4daaccfc6b29485cec4f37e80ec942",
c "nvars": 60,
c "ncls": 840,
c "nhards": 0,
c "nhard_len_stats":
c    { "min": 0, "max": 0, "ave": 0.00,
c      "stddev": 0.00 },
c "nsofts": 840,
c "nsoft_len_stats":
c    { "min": 2, "max": 2, "ave": 2.00,
c      "stddev": 0.00 },
c "nsoft_wts": 10,
c "soft_wt_stats":
c    { "min": 1, "max": 10, "ave": 5.61,
c      "stddev": 2.87 }
c}
c------------------------------------------------------------
c Generated after 1 tries
c Graph with 60 nodes and 420 edges, Max edges:1770
p wcnf 60 840 4713
9 1 5 0
9 -1 -5 0
4 1 6 0
4 -1 -6 0
8 1 20 0
8 -1 -20 0
8 1 29 0
8 -1 -29 0
10 1 30 0
10 -1 -30 0
2 1 32 0
2 -1 -32 0
4 1 33 0
4 -1 -33 0
8 1 35 0
8 -1 -35 0
3 1 41 0
3 -1 -41 0
6 1 49 0
6 -1 -49 0
5 1 50 0
5 -1 -50 0
7 1 58 0
7 -1 -58 0
4 1 59 0
4 -1 -59 0
6 2 3 0
6 -2 -3 0
10 2 4 0
10 -2 -4 0
10 2 6 0
10 -2 -6 0
7 2 8 0
7 -2 -8 0
8 2 11 0
8 -2 -11 0
2 2 13 0
2 -2 -13 0
7 2 23 0
7 -2 -23 0
1 2 26 0
1 -2 -26 0
3 2 37 0
3 -2 -37 0
2 2 39 0
2 -2 -39 0
9 2 41 0
9 -2 -41 0
2 2 44 0
2 -2 -44 0
5 2 45 0
5 -2 -45 0
2 2 46 0
2 -2 -46 0
2 2 50 0
2 -2 -50 0
10 2 52 0
10 -2 -52 0
3 2 60 0
3 -2 -60 0
6 3 13 0
6 -3 -13 0
9 3 14 0
9 -3 -14 0
7 3 18 0
7 -3 -18 0
3 3 20 0
3 -3 -20 0
7 3 21 0
7 -3 -21 0
6 3 25 0
6 -3 -25 0
5 3 28 0
5 -3 -28 0
10 3 32 0
10 -3 -32 0
3 3 38 0
3 -3 -38 0
8 3 40 0
8 -3 -40 0
6 3 41 0
6 -3 -41 0
8 3 44 0
8 -3 -44 0
5 3 49 0
5 -3 -49 0
9 4 8 0
9 -4 -8 0
3 4 10 0
3 -4 -10 0
4 4 11 0
4 -4 -11 0
9 4 14 0
9 -4 -14 0
10 4 20 0
10 -4 -20 0
1 4 26 0
1 -4 -26 0
10 4 27 0
10 -4 -27 0
6 4 39 0
6 -4 -39 0
1 4 40 0
1 -4 -40 0
2 4 41 0
2 -4 -41 0
7 4 42 0
7 -4 -42 0
9 4 43 0
9 -4 -43 0
4 4 46 0
4 -4 -46 0
1 4 47 0
1 -4 -47 0
1 4 49 0
1 -4 -49 0
5 4 51 0
5 -4 -51 0
1 5 6 0
1 -5 -6 0
3 5 13 0
3 -5 -13 0
10 5 24 0
10 -5 -24 0
10 5 43 0
10 -5 -43 0
9 5 50 0
9 -5 -50 0
3 5 58 0
3 -5 -58 0
6 5 59 0
6 -5 -59 0
4 6 9 0
4 -6 -9 0
8 6 14 0
8 -6 -14 0
6 6 15 0
6 -6 -15 0
7 6 16 0
7 -6 -16 0
6 6 21 0
6 -6 -21 0
1 6 32 0
1 -6 -32 0
5 6 36 0
5 -6 -36 0
10 6 37 0
10 -6 -37 0
10 6 40 0
10 -6 -40 0
8 6 41 0
8 -6 -41 0
3 7 8 0
3 -7 -8 0
8 7 14 0
8 -7 -14 0
7 7 21 0
7 -7 -21 0
4 7 24 0
4 -7 -24 0
7 7 25 0
7 -7 -25 0
2 7 27 0
2 -7 -27 0
5 7 28 0
5 -7 -28 0
9 7 29 0
9 -7 -29 0
9 7 33 0
9 -7 -33 0
4 7 37 0
4 -7 -37 0
3 7 38 0
3 -7 -38 0
9 7 39 0
9 -7 -39 0
4 7 42 0
4 -7 -42 0
7 7 44 0
7 -7 -44 0
10 7 46 0
10 -7 -46 0
6 7 48 0
6 -7 -48 0
7 7 51 0
7 -7 -51 0
9 8 12 0
9 -8 -12 0
5 8 20 0
5 -8 -20 0
10 8 23 0
10 -8 -23 0
4 8 26 0
4 -8 -26 0
9 8 36 0
9 -8 -36 0
7 8 54 0
7 -8 -54 0
10 8 56 0
10 -8 -56 0
5 8 60 0
5 -8 -60 0
3 9 15 0
3 -9 -15 0
10 9 20 0
10 -9 -20 0
10 9 22 0
10 -9 -22 0
2 9 25 0
2 -9 -25 0
9 9 29 0
9 -9 -29 0
7 9 32 0
7 -9 -32 0
5 9 38 0
5 -9 -38 0
7 9 43 0
7 -9 -43 0
3 9 44 0
3 -9 -44 0
8 9 57 0
8 -9 -57 0
4 10 11 0
4 -10 -11 0
5 10 17 0
5 -10 -17 0
3 10 18 0
3 -10 -18 0
2 10 21 0
2 -10 -21 0
3 10 31 0
3 -10 -31 0
6 10 33 0
6 -10 -33 0
5 10 38 0
5 -10 -38 0
2 10 47 0
2 -10 -47 0
10 10 51 0
10 -10 -51 0
2 10 54 0
2 -10 -54 0
2 10 55 0
2 -10 -55 0
5 11 14 0
5 -11 -14 0
8 11 15 0
8 -11 -15 0
10 11 27 0
10 -11 -27 0
10 11 28 0
10 -11 -28 0
7 11 39 0
7 -11 -39 0
4 11 48 0
4 -11 -48 0
8 11 51 0
8 -11 -51 0
4 11 58 0
4 -11 -58 0
3 12 14 0
3 -12 -14 0
3 12 15 0
3 -12 -15 0
6 12 21 0
6 -12 -21 0
3 12 26 0
3 -12 -26 0
2 12 32 0
2 -12 -32 0
8 12 36 0
8 -12 -36 0
2 12 37 0
2 -12 -37 0
8 12 49 0
8 -12 -49 0
2 12 51 0
2 -12 -51 0
8 12 53 0
8 -12 -53 0
1 12 54 0
1 -12 -54 0
10 13 24 0
10 -13 -24 0
1 13 40 0
1 -13 -40 0
6 13 41 0
6 -13 -41 0
2 13 42 0
2 -13 -42 0
3 13 48 0
3 -13 -48 0
8 13 49 0
8 -13 -49 0
8 13 50 0
8 -13 -50 0
7 13 59 0
7 -13 -59 0
10 14 15 0
10 -14 -15 0
7 14 19 0
7 -14 -19 0
8 14 21 0
8 -14 -21 0
1 14 32 0
1 -14 -32 0
2 14 33 0
2 -14 -33 0
6 14 35 0
6 -14 -35 0
1 14 39 0
1 -14 -39 0
1 14 40 0
1 -14 -40 0
3 14 44 0
3 -14 -44 0
5 14 45 0
5 -14 -45 0
9 14 52 0
9 -14 -52 0
6 14 53 0
6 -14 -53 0
8 14 55 0
8 -14 -55 0
1 14 56 0
1 -14 -56 0
2 14 57 0
2 -14 -57 0
10 15 29 0
10 -15 -29 0
3 15 37 0
3 -15 -37 0
9 15 38 0
9 -15 -38 0
2 15 44 0
2 -15 -44 0
10 15 54 0
10 -15 -54 0
1 16 17 0
1 -16 -17 0
9 16 23 0
9 -16 -23 0
1 16 29 0
1 -16 -29 0
1 16 33 0
1 -16 -33 0
10 16 35 0
10 -16 -35 0
6 16 44 0
6 -16 -44 0
2 16 60 0
2 -16 -60 0
2 17 18 0
2 -17 -18 0
4 17 19 0
4 -17 -19 0
10 17 25 0
10 -17 -25 0
9 17 26 0
9 -17 -26 0
4 17 29 0
4 -17 -29 0
6 17 32 0
6 -17 -32 0
6 17 36 0
6 -17 -36 0
5 17 38 0
5 -17 -38 0
7 17 43 0
7 -17 -43 0
1 17 47 0
1 -17 -47 0
6 17 50 0
6 -17 -50 0
8 17 51 0
8 -17 -51 0
4 17 54 0
4 -17 -54 0
10 17 55 0
10 -17 -55 0
6 18 19 0
6 -18 -19 0
9 18 22 0
9 -18 -22 0
8 18 26 0
8 -18 -26 0
7 18 29 0
7 -18 -29 0
1 18 32 0
1 -18 -32 0
8 18 33 0
8 -18 -33 0
9 18 34 0
9 -18 -34 0
10 18 42 0
10 -18 -42 0
9 18 49 0
9 -18 -49 0
9 18 58 0
9 -18 -58 0
10 18 60 0
10 -18 -60 0
8 19 20 0
8 -19 -20 0
10 19 24 0
10 -19 -24 0
10 19 28 0
10 -19 -28 0
7 19 29 0
7 -19 -29 0
5 19 38 0
5 -19 -38 0
2 19 40 0
2 -19 -40 0
9 19 41 0
9 -19 -41 0
9 19 45 0
9 -19 -45 0
1 19 46 0
1 -19 -46 0
7 19 51 0
7 -19 -51 0
3 19 54 0
3 -19 -54 0
7 19 55 0
7 -19 -55 0
3 19 56 0
3 -19 -56 0
8 19 57 0
8 -19 -57 0
4 19 58 0
4 -19 -58 0
4 20 23 0
4 -20 -23 0
3 20 26 0
3 -20 -26 0
1 20 27 0
1 -20 -27 0
7 20 31 0
7 -20 -31 0
3 20 35 0
3 -20 -35 0
7 20 37 0
7 -20 -37 0
6 20 40 0
6 -20 -40 0
10 20 52 0
10 -20 -52 0
3 20 56 0
3 -20 -56 0
6 20 57 0
6 -20 -57 0
8 20 60 0
8 -20 -60 0
2 21 25 0
2 -21 -25 0
5 21 30 0
5 -21 -30 0
6 21 31 0
6 -21 -31 0
10 21 44 0
10 -21 -44 0
5 21 47 0
5 -21 -47 0
4 21 50 0
4 -21 -50 0
9 21 51 0
9 -21 -51 0
5 21 59 0
5 -21 -59 0
1 22 28 0
1 -22 -28 0
4 22 37 0
4 -22 -37 0
6 22 41 0
6 -22 -41 0
9 22 45 0
9 -22 -45 0
3 22 46 0
3 -22 -46 0
7 22 47 0
7 -22 -47 0
5 22 51 0
5 -22 -51 0
5 22 53 0
5 -22 -53 0
4 22 57 0
4 -22 -57 0
8 22 60 0
8 -22 -60 0
2 23 24 0
2 -23 -24 0
7 23 25 0
7 -23 -25 0
1 23 30 0
1 -23 -30 0
5 23 31 0
5 -23 -31 0
7 23 35 0
7 -23 -35 0
7 23 40 0
7 -23 -40 0
7 23 55 0
7 -23 -55 0
4 23 56 0
4 -23 -56 0
2 23 59 0
2 -23 -59 0
7 24 30 0
7 -24 -30 0
7 24 34 0
7 -24 -34 0
8 24 38 0
8 -24 -38 0
4 24 40 0
4 -24 -40 0
8 24 48 0
8 -24 -48 0
3 24 51 0
3 -24 -51 0
10 24 55 0
10 -24 -55 0
7 24 56 0
7 -24 -56 0
7 24 58 0
7 -24 -58 0
3 24 60 0
3 -24 -60 0
6 25 30 0
6 -25 -30 0
1 25 34 0
1 -25 -34 0
3 25 36 0
3 -25 -36 0
9 25 40 0
9 -25 -40 0
7 25 50 0
7 -25 -50 0
1 25 55 0
1 -25 -55 0
2 26 35 0
2 -26 -35 0
4 26 40 0
4 -26 -40 0
6 26 41 0
6 -26 -41 0
6 26 56 0
6 -26 -56 0
7 27 28 0
7 -27 -28 0
3 27 33 0
3 -27 -33 0
8 27 39 0
8 -27 -39 0
3 27 40 0
3 -27 -40 0
4 27 43 0
4 -27 -43 0
2 27 47 0
2 -27 -47 0
10 27 55 0
10 -27 -55 0
1 27 60 0
1 -27 -60 0
9 28 36 0
9 -28 -36 0
4 28 38 0
4 -28 -38 0
2 28 39 0
2 -28 -39 0
5 28 45 0
5 -28 -45 0
10 28 58 0
10 -28 -58 0
10 29 33 0
10 -29 -33 0
8 29 36 0
8 -29 -36 0
7 29 42 0
7 -29 -42 0
2 29 52 0
2 -29 -52 0
7 29 59 0
7 -29 -59 0
4 30 33 0
4 -30 -33 0
8 30 36 0
8 -30 -36 0
10 30 37 0
10 -30 -37 0
10 30 41 0
10 -30 -41 0
9 30 47 0
9 -30 -47 0
3 30 49 0
3 -30 -49 0
8 30 50 0
8 -30 -50 0
6 30 55 0
6 -30 -55 0
3 30 57 0
3 -30 -57 0
10 30 60 0
10 -30 -60 0
10 31 39 0
10 -31 -39 0
9 31 40 0
9 -31 -40 0
5 31 41 0
5 -31 -41 0
6 31 42 0
6 -31 -42 0
2 31 43 0
2 -31 -43 0
3 31 46 0
3 -31 -46 0
9 31 47 0
9 -31 -47 0
5 31 48 0
5 -31 -48 0
5 31 50 0
5 -31 -50 0
9 31 56 0
9 -31 -56 0
5 31 57 0
5 -31 -57 0
3 31 59 0
3 -31 -59 0
2 32 33 0
2 -32 -33 0
7 32 46 0
7 -32 -46 0
8 32 49 0
8 -32 -49 0
2 32 50 0
2 -32 -50 0
7 32 58 0
7 -32 -58 0
5 33 36 0
5 -33 -36 0
9 33 38 0
9 -33 -38 0
8 33 41 0
8 -33 -41 0
2 33 52 0
2 -33 -52 0
3 33 54 0
3 -33 -54 0
5 33 56 0
5 -33 -56 0
2 34 48 0
2 -34 -48 0
2 34 51 0
2 -34 -51 0
4 34 53 0
4 -34 -53 0
4 35 36 0
4 -35 -36 0
10 35 38 0
10 -35 -38 0
10 35 40 0
10 -35 -40 0
7 35 42 0
7 -35 -42 0
9 35 48 0
9 -35 -48 0
9 35 51 0
9 -35 -51 0
5 35 52 0
5 -35 -52 0
4 35 53 0
4 -35 -53 0
4 35 57 0
4 -35 -57 0
7 36 43 0
7 -36 -43 0
7 36 48 0
7 -36 -48 0
3 36 54 0
3 -36 -54 0
2 36 56 0
2 -36 -56 0
1 36 58 0
1 -36 -58 0
2 36 59 0
2 -36 -59 0
7 37 40 0
7 -37 -40 0
4 37 41 0
4 -37 -41 0
3 37 42 0
3 -37 -42 0
4 37 47 0
4 -37 -47 0
1 37 50 0
1 -37 -50 0
5 37 52 0
5 -37 -52 0
10 38 41 0
10 -38 -41 0
6 38 49 0
6 -38 -49 0
3 38 50 0
3 -38 -50 0
7 38 56 0
7 -38 -56 0
8 38 57 0
8 -38 -57 0
5 39 40 0
5 -39 -40 0
2 39 41 0
2 -39 -41 0
9 39 42 0
9 -39 -42 0
7 39 45 0
7 -39 -45 0
6 39 46 0
6 -39 -46 0
3 39 49 0
3 -39 -49 0
6 39 53 0
6 -39 -53 0
5 39 55 0
5 -39 -55 0
9 40 42 0
9 -40 -42 0
4 40 43 0
4 -40 -43 0
3 40 44 0
3 -40 -44 0
4 40 45 0
4 -40 -45 0
8 40 46 0
8 -40 -46 0
7 40 50 0
7 -40 -50 0
10 40 58 0
10 -40 -58 0
4 41 42 0
4 -41 -42 0
9 41 55 0
9 -41 -55 0
2 41 57 0
2 -41 -57 0
5 42 48 0
5 -42 -48 0
1 42 50 0
1 -42 -50 0
8 42 51 0
8 -42 -51 0
8 42 58 0
8 -42 -58 0
3 43 44 0
3 -43 -44 0
2 43 46 0
2 -43 -46 0
9 43 50 0
9 -43 -50 0
8 43 54 0
8 -43 -54 0
1 43 58 0
1 -43 -58 0
5 44 45 0
5 -44 -45 0
10 44 47 0
10 -44 -47 0
8 44 48 0
8 -44 -48 0
3 44 50 0
3 -44 -50 0
5 44 59 0
5 -44 -59 0
9 44 60 0
9 -44 -60 0
1 45 46 0
1 -45 -46 0
1 45 52 0
1 -45 -52 0
4 46 47 0
4 -46 -47 0
4 46 49 0
4 -46 -49 0
7 46 51 0
7 -46 -51 0
9 47 52 0
9 -47 -52 0
2 47 53 0
2 -47 -53 0
1 47 54 0
1 -47 -54 0
1 48 50 0
1 -48 -50 0
5 48 54 0
5 -48 -54 0
8 48 55 0
8 -48 -55 0
7 48 58 0
7 -48 -58 0
5 48 60 0
5 -48 -60 0
2 49 50 0
2 -49 -50 0
6 49 51 0
6 -49 -51 0
6 49 52 0
6 -49 -52 0
6 49 58 0
6 -49 -58 0
6 49 60 0
6 -49 -60 0
4 50 53 0
4 -50 -53 0
4 51 55 0
4 -51 -55 0
9 51 59 0
9 -51 -59 0
5 51 60 0
5 -51 -60 0
2 52 53 0
2 -52 -53 0
7 52 56 0
7 -52 -56 0
6 52 59 0
6 -52 -59 0
7 53 56 0
7 -53 -56 0
6 54 57 0
6 -54 -57 0
3 54 59 0
3 -54 -59 0
9 54 60 0
9 -54 -60 0
1 55 57 0
1 -55 -57 0
1 56 59 0
1 -56 -59 0
10 57 58 0
10 -57 -58 0
2 59 60 0
2 -59 -60 0
